NAME : A039-06f.2289.tour
COMMENT : Cost = 0_2289
COMMENT : Found by LKH [Keld Helsgaun] Tue Sep 12 09:35:04 2017
TYPE : TOUR
DIMENSION : 44
TOUR_SECTION
1
30
2
41
5
6
9
8
7
44
16
38
10
11
13
12
42
29
28
23
21
14
37
22
39
4
17
15
18
19
20
43
36
34
31
27
24
25
26
32
33
35
40
3
-1
EOF
